Argumentos: 
./solver.release -i 18 -t 86400 -a 7 -h 86400 -w Testes/R2-i18 -m R2_modeloCom2345.mod -o R2_modeloCom2345.mod 
Seed: 1622927966
hidden-TXT/Sc-n070w4.txt
hidden-TXT/H0-n070w4-2.txt
hidden-TXT/WD-n070w4-3.txt hidden-TXT/WD-n070w4-5.txt hidden-TXT/WD-n070w4-8.txt hidden-TXT/WD-n070w4-2.txt 
Reading model section from R2_modeloCom2345.mod...
367 lines were read
Reading data section from Testes/R2-i18/18.dat...
13093 lines were read
Generating obj...
Generating H1turnoDia...
Generating H2coberturaMinima...
Generating H3AsucessaoTurnos...
Generating H3BsucessaoTurnos...
Generating H4qualificacao...
Generating S1coberturaOtima...
Generating S2d...
Generating S2dHist...
Generating S2b...
Generating S2bHist...
Generating auxS5...
Generating S6a...
Generating S6b...
Generating auxS7...
Generating S7...
Model has been successfully generated
Writing problem data to `Testes/R2-i18/18.lp'...
326117 lines were written
CPX0000  Tried aggregator 2 times.
CPX0000  MIP Presolve eliminated 14244 rows and 49891 columns.
CPX0000  MIP Presolve modified 3777 coefficients.
CPX0000  Aggregator did 6 substitutions.
CPX0000  Reduced MIP has 14990 rows, 23002 columns, and 209967 nonzeros.
CPX0000  Reduced MIP has 22568 binaries, 434 generals, 0 SOSs, and 0 indicators.
CPX0000  Presolve time = 0.34 sec. (223.60 ticks)
CPX0000  Found incumbent of value 437315.000000 after 1.07 sec. (789.46 ticks)
[1m[30m[ZEN] [0m00:00:01 [1m[34m 437315.00[1m[32m  100.00%
[0mCPX0000  Probing time = 0.02 sec. (8.17 ticks)
CPX0000  Tried aggregator 1 time.
CPX0000  Reduced MIP has 14990 rows, 23002 columns, and 209967 nonzeros.
CPX0000  Reduced MIP has 22568 binaries, 434 generals, 0 SOSs, and 0 indicators.
CPX0000  Presolve time = 0.10 sec. (76.58 ticks)
CPX0000  Probing time = 0.02 sec. (7.78 ticks)
CPX0000  Clique table members: 9962.
CPX0000  MIP emphasis: balance optimality and feasibility.
CPX0000  MIP search method: dynamic search.
CPX0000  Parallel mode: none, using 1 thread.
CPX0000  Root relaxation solution time = 2.40 sec. (1377.18 ticks)
CPX0000
CPX0000          Nodes                                         Cuts/
CPX0000     Node  Left     Objective  IInf  Best Integer    Best Bound    ItCnt     Gap
CPX0000
CPX0000  *     0+    0                       437315.0000        0.0000     7149  100.00%
CPX0000        0     0      155.0000   923   437315.0000      155.0000     7149   99.96%
CPX0000        0     0      231.6667  1212   437315.0000    Cuts: 1000    11206   99.95%
CPX0000        0     0      295.7857  1261   437315.0000     Cuts: 622    14233   99.93%
CPX0000        0     0      324.8333  1443   437315.0000     Cuts: 367    16544   99.93%
CPX0000  *     0+    0                       139915.0000      324.8333    16544   99.77%
[1m[30m[ZEN] [0m00:00:16 [1m[34m 139915.00[1m[32m   99.77%
[0mCPX0000        0     0      374.8333  1393   139915.0000     Cuts: 334    19365   99.73%
CPX0000        0     0      390.7857  1227   139915.0000     Cuts: 282    22938   99.72%
CPX0000        0     0      392.0000  1280   139915.0000     Cuts: 195    25094   99.72%
CPX0000        0     0      392.0000  1364   139915.0000     Cuts: 154    27511   99.72%
CPX0000        0     0      392.0000   823   139915.0000      Cuts: 67    28703   99.72%
CPX0000        0     0      392.7778   866   139915.0000     Cuts: 132    30052   99.72%
CPX0000        0     0      392.7778   929   139915.0000     Cuts: 126    31623   99.72%
CPX0000  *     0+    0                          880.0000      392.7778    31623   55.37%
CPX0000  *     0+    0                          540.0000      392.7778    31623   27.26%
CPX0000  *     0+    0                          500.0000      392.7778    31623   21.44%
[1m[30m[ZEN] [0m00:00:39 [1m[34m    500.00[1m[32m   21.44%
[0mCPX0000        0     2      392.7778   638      500.0000      395.2778    31623   20.94%
CPX0000  Elapsed time = 39.97 sec. (22977.89 ticks, tree = 0.00 MB
CPX0000        1     3      400.2778   720      500.0000      395.2778    34616   20.94%
CPX0000        2     4      395.2778   615      500.0000      395.2778    35885   20.94%
CPX0000        4     6      395.2778   732      500.0000      395.2778    40289   20.94%
CPX0000        5     7      400.2778   648      500.0000      395.2778    43740   20.94%
CPX0000        6     8      405.2778   640      500.0000      395.2778    46046   20.94%
CPX0000        7     9      430.2778   725      500.0000      395.2778    49117   20.94%
CPX0000        8    10      405.2778   556      500.0000      395.2778    49699   20.94%
CPX0000       10    12      420.2778   589      500.0000      395.2778    51639   20.94%
CPX0000       13    15      416.9444   588      500.0000      395.2778    52429   20.94%
CPX0000       19    21      435.2778   597      500.0000      395.2778    55247   20.94%
CPX0000  Elapsed time = 50.86 sec. (30660.62 ticks, tree = 1.65 MB
CPX0000       26    28      445.0000   453      500.0000      395.2778    58298   20.94%
CPX0000       60    62      450.0000   199      500.0000      395.2778    60889   20.94%
CPX0000      130   132      460.0000     9      500.0000      395.2778    63260   20.94%
CPX0000  *   154    93      integral     0      460.0000      395.2778    64398   14.07%
[1m[30m[ZEN] [0m00:00:56 [1m[34m    460.00[1m[32m   14.07%
[0mCPX0000      158    97      415.2778   744      460.0000      398.6111    66231   13.35%
CPX0000      166   105      417.7778   645      460.0000      398.6111    68401   13.35%
CPX0000      188   123      455.0000   230      460.0000      398.6111    70949   13.35%
CPX0000      193   122      398.6111   740      460.0000      398.6111    72238   13.35%
CPX0000      200   129      419.5714   685      460.0000      398.6111    74190   13.35%
CPX0000      225   154      450.0000   249      460.0000      398.6111    76481   13.35%
CPX0000  Elapsed time = 65.62 sec. (40860.10 ticks, tree = 27.28 MB
CPX0000      245   170      438.5714   647      460.0000      400.2778    78595   12.98%
CPX0000  *   254+   80                          450.0000      400.2778    80418   11.05%
CPX0000      254    82      415.2778   728      450.0000      400.2778    80418   11.05%
[1m[30m[ZEN] [0m00:01:08 [1m[34m    450.00[1m[32m   11.05%
[0mCPX0000      268    93      415.2778   719      450.0000      403.6111    84027   10.31%
CPX0000      272    97      427.7778   686      450.0000      403.6111    86177   10.31%
CPX0000      280    99      403.6111   853      450.0000      403.6111    89106   10.31%
CPX0000      296   109      413.6111   807      450.0000      405.2778    91319    9.94%
CPX0000      302   115      440.0000   558      450.0000      405.2778    92184    9.94%
CPX0000      311   120      422.7778   626      450.0000      405.2778    94403    9.94%
CPX0000      319   124      410.2778   767      450.0000      405.2778    96813    9.94%
CPX0000      331   133      410.2778   769      450.0000      405.2778    99582    9.94%
CPX0000  Elapsed time = 82.77 sec. (53089.06 ticks, tree = 18.61 MB
CPX0000      334   136      422.7778   712      450.0000      405.2778   101912    9.94%
CPX0000      339   141      430.0000   687      450.0000      405.2778   103405    9.94%
CPX0000      340   142      430.0000   612      450.0000      405.2778   104805    9.94%
CPX0000      344   146      440.0000   605      450.0000      405.2778   106651    9.94%
CPX0000      354   150      420.2778   735      450.0000      405.2778   108882    9.94%
CPX0000      361   153      410.2778   740      450.0000      410.2778   111017    8.83%
CPX0000      376   162      420.2778   632      450.0000      410.2778   113366    8.83%
CPX0000      388   170      436.0000   557      450.0000      410.2778   115189    8.83%
CPX0000      398   176      427.7778   624      450.0000      412.7778   117702    8.27%
CPX0000      407   181      431.6667   638      450.0000      412.7778   119610    8.27%
CPX0000  Elapsed time = 97.10 sec. (63558.07 ticks, tree = 24.74 MB
CPX0000      417   185      425.0000   560      450.0000      413.5714   121439    8.10%
CPX0000      432   192      441.6667   598      450.0000      415.2778   123587    7.72%
CPX0000      437   193      432.7778   611      450.0000      415.2778   129511    7.72%
CPX0000      439   195      433.5714   603      450.0000      415.2778   132150    7.72%
CPX0000      446   198      430.2778   713      450.0000      415.2778   133328    7.72%
CPX0000      452   202      438.5714   695      450.0000      415.2778   135353    7.72%
CPX0000      458   204      415.2778   838      450.0000      415.2778   137485    7.72%
CPX0000      469   210      435.2778   751      450.0000      415.2778   139606    7.72%
CPX0000      480   213      422.7778   741      450.0000      417.7778   141882    7.16%
CPX0000      492   225      440.0000   453      450.0000      417.7778   144103    7.16%
CPX0000  Elapsed time = 114.15 sec. (75811.11 ticks, tree = 33.28 MB
CPX0000      501   230      436.6667   586      450.0000      417.7778   145943    7.16%
CPX0000      513   231      430.0000   757      450.0000      417.7778   148121    7.16%
CPX0000      521   239      440.0000   406      450.0000      417.7778   150071    7.16%
CPX0000      536   251      430.0000   628      450.0000      417.7778   152460    7.16%
CPX0000      550   261      428.5714   691      450.0000      417.7778   154696    7.16%
CPX0000      559   267      428.5714   593      450.0000      417.7778   157074    7.16%
CPX0000      565   267      445.0000   467      450.0000      417.7778   158724    7.16%
CPX0000      570   271      438.5714   706      450.0000      417.7778   160839    7.16%
CPX0000      579   273      432.7778   673      450.0000      417.7778   163333    7.16%
CPX0000      585   272      427.7778   728      450.0000      417.7778   165433    7.16%
CPX0000  Elapsed time = 126.87 sec. (85819.10 ticks, tree = 42.80 MB
CPX0000      590   273      422.7778   771      450.0000      418.5714   167603    6.98%
CPX0000      593   276      430.2381   660      450.0000      418.5714   170206    6.98%
CPX0000      600   277      440.2381   670      450.0000      418.5714   173547    6.98%
CPX0000      603   277      423.5714   776      450.0000      418.5714   175880    6.98%
CPX0000      613   283      423.5714   603      450.0000      418.7778   178274    6.94%
CPX0000      621   288      424.5714   731      450.0000      419.2857   180513    6.83%
CPX0000      631   294      430.0000   704      450.0000      419.2857   183387    6.83%
CPX0000      645   300      430.0000   596      450.0000      419.2857   186028    6.83%
CPX0000      656   304      430.0000   688      450.0000      420.0000   188534    6.67%
CPX0000      667   308      430.2778   805      450.0000      420.2778   191113    6.60%
CPX0000  Elapsed time = 144.24 sec. (98842.52 ticks, tree = 45.82 MB
CPX0000      673   310      442.7778   717      450.0000      420.2778   193552    6.60%
CPX0000      678   311      433.5714   719      450.0000      420.2778   195309    6.60%
CPX0000      681   314      438.5714   608      450.0000      420.2778   196142    6.60%
CPX0000      685   313      430.2778   776      450.0000      420.2778   198972    6.60%
CPX0000      694   318      435.0000   533      450.0000      420.2778   200764    6.60%
CPX0000      707   325      440.0000   557      450.0000      420.2778   203694    6.60%
CPX0000      716   329      433.5714   747      450.0000      420.2778   206104    6.60%
CPX0000      723   332      425.2778   824      450.0000      420.2778   208428    6.60%
CPX0000      731   336      420.2778   797      450.0000      420.2778   210320    6.60%
CPX0000      740   341      425.2778   770      450.0000      420.2778   212539    6.60%
CPX0000  Elapsed time = 157.97 sec. (110036.98 ticks, tree = 49.02 MB
CPX0000      748   345      440.2778   726      450.0000      421.7143   214688    6.29%
CPX0000      755   348      441.0000   567      450.0000      421.7778   216535    6.27%
CPX0000      763   348      427.7778   577      450.0000      422.7778   218970    6.05%
CPX0000      773   354      440.0000   596      450.0000      422.7778   221204    6.05%
CPX0000      780   354      439.4444   794      450.0000      422.7778   223485    6.05%
CPX0000      785   354      442.7778   515      450.0000      422.7778   225499    6.05%
CPX0000      790   355      428.5714   692      450.0000      422.7778   227294    6.05%
CPX0000      795   356      430.0000   743      450.0000      422.7778   228990    6.05%
CPX0000      804   361      427.7778   705      450.0000      422.7778   232090    6.05%
CPX0000      813   366      438.5714   665      450.0000      422.7778   234299    6.05%
CPX0000  Elapsed time = 171.60 sec. (120789.68 ticks, tree = 49.69 MB
CPX0000      818   368      444.4444   768      450.0000      422.7778   237929    6.05%
CPX0000      827   371      434.4444   735      450.0000      422.7778   241092    6.05%
CPX0000      833   374      427.7778   628      450.0000      422.7778   243523    6.05%
CPX0000      840   378      427.7778   691      450.0000      422.7778   246616    6.05%
CPX0000      848   382      435.0000   569      450.0000      422.7778   248918    6.05%
CPX0000      857   384      432.7778   704      450.0000      422.7778   252115    6.05%
CPX0000      863   384      440.0000   599      450.0000      422.7778   254499    6.05%
CPX0000      873   389      437.7778   778      450.0000      422.7778   257408    6.05%
CPX0000      880   391      440.0000   658      450.0000      422.7778   259357    6.05%
CPX0000      896   399      440.0000   718      450.0000      422.7778   268557    6.05%
CPX0000  Elapsed time = 190.81 sec. (136704.63 ticks, tree = 54.77 MB
CPX0000      920   406      441.6667   615      450.0000      423.5714   277160    5.87%
CPX0000      938   418      440.0000   651      450.0000      423.5714   284767    5.87%
CPX0000      963   429      433.5714   709      450.0000      423.5714   292519    5.87%
CPX0000      984   436      435.2381   638      450.0000      423.7778   301169    5.83%
CPX0000     1005   443      445.0000   539      450.0000      424.2857   309295    5.71%
CPX0000     1034   456      432.5000   700      450.0000      425.2778   316485    5.49%
CPX0000     1059   468      430.2778   756      450.0000      425.2778   324494    5.49%
CPX0000     1081   476      438.5714   649      450.0000      425.7143   331670    5.40%
CPX0000     1100   483      435.0000   525      450.0000      427.7778   339294    4.94%
CPX0000     1127   488      437.7778   565      450.0000      427.7778   347775    4.94%
CPX0000  Elapsed time = 236.36 sec. (175971.20 ticks, tree = 71.29 MB
CPX0000     1148   491        cutoff            450.0000      427.7778   355307    4.94%
CPX0000     1173   497      442.7778   627      450.0000      427.7778   361806    4.94%
CPX0000     1189   500      435.0000   694      450.0000      427.7778   369061    4.94%
CPX0000     1215   495      428.5714   789      450.0000      428.5714   378157    4.76%
CPX0000     1234   502      445.0000   563      450.0000      428.5714   385640    4.76%
CPX0000     1259   507      433.5714   689      450.0000      428.5714   393429    4.76%
CPX0000     1291   526      445.0000   566      450.0000      428.5714   400323    4.76%
CPX0000     1323   533      445.0000   635      450.0000      428.5714   409518    4.76%
CPX0000     1341   537      440.0000   419      450.0000      428.5714   417972    4.76%
CPX0000     1377   553      435.0000   608      450.0000      429.2857   425431    4.60%
CPX0000  Elapsed time = 281.98 sec. (216070.68 ticks, tree = 80.97 MB
CPX0000     1406   559      435.0000   541      450.0000      429.2857   433254    4.60%
CPX0000     1434   577      445.0000   421      450.0000      429.2857   441056    4.60%
CPX0000     1467   584      440.0000   731      450.0000      429.5714   449304    4.54%
CPX0000  *  1473     0      integral     0      450.0000                 462449    0.00%
CPX0000
CPX0000  GUB cover cuts applied:  390
CPX0000  Clique cuts applied:  457
CPX0000  Cover cuts applied:  210
CPX0000  Implied bound cuts applied:  1
CPX0000  Mixed integer rounding cuts applied:  84
CPX0000  Zero-half cuts applied:  226
CPX0000  Lift and project cuts applied:  7
CPX0000  Gomory fractional cuts applied:  38
CPX0000
CPX0000  Root node processing (before b&c):
CPX0000    Real time             =   39.91 sec. (22931.96 ticks)
CPX0000  Sequential b&c:
CPX0000    Real time             =  266.49 sec. (213662.77 ticks)
CPX0000                            ------------
CPX0000  Total (root+branch&cut) =  306.40 sec. (236594.73 ticks)
H2 understaffing: 0
H3 shiftTypeSuccessions: 0
S1 optimalCoverage: 60
S2a consecutiveShift: 12450 = (830,0 )
S2b consecutiveWorkingDays: 16110 = ( 537,0 )
S3 consecutiveDaysOff: 15720 = ( 524,0 )
S4 preferences: 40
S5 completeWeekend: 0
S6 totalAssignments: 320
S7 totalWorkingWeekeends: 30
 

Cost Solution: 44730

      |M|T|W|T|F|S|S| |M|T|W|T|F|S|S| |M|T|W|T|F|S|S| |M|T|W|T|F|S|S|
-----------------------------------------------------------------------
HN_0  |N|-|L|L|-|-|-| |L|L|N|-|-|-|-| |-|-|N|-|-|-|-| |L|L|N|-|-|-|D|
HN_1  |D|E|-|-|E|E|D| |N|-|E|-|-|-|-| |-|E|D|N|-|-|-| |E|L|-|N|-|L|L|
HN_2  |-|N|N|-|N|-|-| |E|D|E|-|E|E|L| |L|L|-|D|E|-|-| |E|-|D|-|-|-|-|
HN_3  |E|-|-|-|E|-|-| |-|-|L|-|D|-|-| |D|D|D|N|-|-|E| |-|N|N|-|-|-|-|
HN_4  |-|D|E|E|-|L|L| |-|D|L|L|-|-|-| |N|-|E|-|-|E|D| |-|L|-|D|L|-|-|
HN_5  |L|-|D|-|D|-|-| |-|L|-|-|-|-|-| |E|-|-|-|N|-|N| |-|D|E|E|N|-|-|
HN_6  |-|E|L|-|L|-|-| |-|L|-|-|D|D|E| |E|E|-|E|-|L|L| |-|E|L|-|D|-|-|
HN_7  |E|N|-|D|-|N|N| |-|L|-|-|L|N|N| |-|D|D|-|D|-|-| |D|E|-|L|-|-|-|
NU_8  |N|N|-|L|-|E|E| |-|E|-|E|E|L|L| |-|E|-|L|L|-|-| |-|D|L|-|-|-|-|
NU_9  |L|N|-|L|-|D|D| |-|D|-|-|E|E|E| |L|-|L|L|N|-|-| |D|L|N|-|L|-|-|
NU_10 |L|L|N|-|E|-|-| |D|-|L|-|D|-|-| |D|-|N|-|N|-|-| |-|E|D|N|-|E|L|
NU_11 |-|E|E|D|E|-|-| |E|D|D|L|L|-|-| |L|N|N|-|E|D|E| |N|-|L|L|L|N|N|
NU_12 |N|-|E|E|-|-|-| |L|-|D|E|D|-|-| |L|-|D|E|D|-|-| |E|E|N|-|E|-|-|
NU_13 |-|E|-|E|-|-|-| |-|-|N|-|D|-|-| |E|N|-|D|-|-|-| |-|E|E|E|-|-|D|
NU_14 |L|N|-|E|E|-|-| |L|-|N|-|-|-|-| |-|L|L|N|-|E|L| |N|N|-|D|E|-|-|
NU_15 |E|-|-|L|L|L|L| |L|-|E|D|-|D|D| |-|L|-|D|L|-|-| |D|N|-|E|D|-|-|
NU_16 |-|L|-|D|-|D|D| |-|E|D|E|-|L|N| |-|D|E|E|D|-|-| |D|-|E|-|-|-|-|
NU_17 |D|N|-|D|L|-|-| |N|-|-|E|-|-|-| |-|-|N|-|E|-|D| |D|-|L|-|-|-|-|
NU_18 |N|-|L|L|L|L|N| |-|D|N|N|-|D|D| |-|-|-|L|L|-|-| |D|D|E|E|L|-|-|
NU_19 |E|D|-|D|E|-|-| |-|D|D|-|N|-|-| |D|D|D|E|D|-|-| |D|-|-|E|D|-|-|
NU_20 |D|E|N|N|N|-|-| |E|E|E|D|D|-|-| |E|E|L|L|-|N|N| |N|-|E|D|L|L|L|
NU_21 |L|L|-|L|-|-|-| |-|-|-|N|-|-|E| |E|D|-|E|-|-|-| |-|-|D|D|N|-|-|
NU_22 |D|E|D|E|N|-|-| |D|E|D|D|L|-|-| |L|L|-|D|D|E|E| |L|-|D|D|E|E|D|
NU_23 |E|E|-|-|E|-|-| |-|D|D|N|N|-|-| |E|D|E|D|E|-|-| |-|E|L|-|E|-|-|
NU_24 |N|-|-|N|-|-|-| |L|N|-|D|L|N|-| |E|E|L|-|D|-|-| |-|D|-|-|-|-|-|
NU_25 |N|-|D|E|D|D|E| |-|D|E|D|N|-|-| |D|D|D|E|D|-|-| |L|-|L|L|L|L|L|
NU_26 |E|D|D|N|N|-|-| |L|L|L|N|N|-|-| |D|N|N|-|E|D|E| |N|N|-|E|E|E|E|
NU_27 |L|-|D|E|D|D|D| |-|N|N|N|N|-|-| |N|N|N|N|N|-|-| |E|D|E|-|D|D|E|
NU_28 |-|D|-|E|D|-|-| |L|N|-|L|L|-|-| |L|-|-|D|E|-|-| |D|E|N|N|N|-|-|
NU_29 |D|-|L|-|N|-|-| |N|N|N|N|-|L|L| |L|-|-|E|D|-|-| |N|-|L|N|-|-|-|
NU_30 |-|-|L|-|N|-|-| |E|-|-|-|-|E|E| |D|E|L|-|D|L|N| |N|N|-|D|D|-|-|
NU_31 |N|-|D|N|N|-|-| |E|D|E|E|D|-|-| |N|N|N|N|-|N|N| |N|N|-|D|D|E|L|
NU_32 |-|L|-|-|D|-|-| |-|D|-|-|N|-|D| |N|-|E|L|L|-|-| |-|D|E|N|-|-|-|
NU_33 |N|N|-|E|E|N|N| |N|-|E|E|E|D|E| |-|L|L|N|N|-|-| |L|L|L|L|L|-|-|
NU_34 |-|D|E|D|-|-|-| |-|-|-|L|-|-|-| |L|-|L|-|N|-|-| |N|N|-|N|-|-|E|
NU_35 |N|-|E|-|L|L|L| |-|-|L|-|E|N|N| |-|-|D|L|L|-|-| |-|-|L|L|N|-|-|
NU_36 |-|N|-|-|D|-|-| |D|E|-|E|-|-|-| |-|E|-|L|N|-|-| |-|D|D|-|N|-|N|
NU_37 |L|L|N|-|-|-|-| |D|N|-|E|N|-|-| |-|E|E|L|L|-|-| |L|L|-|E|N|-|-|
NU_38 |-|D|N|-|D|-|-| |N|-|-|D|L|-|L| |N|-|N|N|-|-|-| |D|D|-|-|-|-|-|
NU_39 |-|N|N|N|-|-|-| |D|L|L|-|D|N|N| |-|-|L|N|N|-|-| |E|-|-|E|N|-|-|
CT_40 |L|L|L|-|-|D|N| |-|-|L|L|L|-|-| |D|D|-|-|-|L|L| |N|-|D|-|N|-|-|
CT_41 |L|L|L|L|-|-|-| |-|-|-|E|D|-|E| |N|-|-|E|-|-|-| |-|L|-|E|-|-|-|
CT_42 |D|D|D|L|L|-|-| |E|E|D|E|D|-|-| |D|D|L|L|-|E|D| |L|-|N|N|N|N|N|
CT_43 |D|L|L|L|-|-|-| |D|N|N|-|E|-|-| |-|D|-|-|-|-|-| |-|L|-|E|-|-|-|
CT_44 |E|E|L|-|D|D|L| |L|L|-|L|L|N|N| |N|-|D|D|E|-|-| |D|E|E|D|D|-|-|
CT_45 |L|L|-|D|D|E|D| |D|-|N|N|N|-|-| |D|L|L|L|N|-|-| |N|N|N|-|E|D|E|
CT_46 |-|E|D|N|N|-|-| |E|D|D|D|D|-|-| |L|N|-|N|N|N|N| |N|-|D|E|E|N|N|
CT_47 |E|E|N|N|-|-|-| |D|L|L|L|-|N|N| |-|E|E|E|D|-|-| |L|-|N|-|D|-|-|
CT_48 |N|N|N|-|E|-|-| |D|N|N|-|-|E|D| |N|-|D|D|-|-|-| |E|D|E|-|D|-|-|
CT_49 |E|D|L|L|L|-|-| |L|L|L|L|N|-|-| |E|E|E|E|-|D|D| |L|-|D|D|E|L|L|
CT_50 |E|-|D|N|-|-|-| |-|E|E|-|L|-|-| |L|N|-|N|N|-|-| |-|L|-|N|-|-|-|
CT_51 |-|D|E|E|L|-|-| |-|-|-|-|E|-|-| |-|-|D|D|L|-|-| |N|N|-|D|-|-|-|
CT_52 |E|E|E|E|D|-|-| |-|E|-|D|-|E|D| |N|-|-|D|D|-|-| |E|N|N|-|-|-|-|
CT_53 |L|N|-|D|E|E|E| |N|-|L|L|L|L|L| |-|D|E|L|L|-|-| |E|D|E|L|L|-|-|
CT_54 |E|E|E|D|E|-|-| |N|N|N|N|N|-|-| |E|D|N|N|-|N|N| |N|N|-|D|E|E|D|
CT_55 |D|-|E|D|D|-|-| |E|E|E|E|L|-|-| |E|L|-|L|L|L|L| |L|-|L|L|L|L|L|
CT_56 |D|D|L|L|L|-|-| |E|D|E|L|N|-|-| |E|E|E|-|E|D|L| |L|L|-|E|D|D|D|
CT_57 |L|L|-|D|L|-|-| |D|-|-|-|D|L|L| |N|N|-|-|-|D|E| |E|L|N|-|-|-|-|
CT_58 |N|N|N|-|N|-|-| |L|N|N|-|-|E|D| |D|-|E|-|D|-|-| |D|L|L|L|-|-|-|
CT_59 |-|D|-|E|-|N|N| |-|-|-|E|E|-|-| |L|L|L|N|-|-|-| |E|E|D|D|N|-|-|
TR_60 |E|-|E|D|L|N|N| |-|E|D|E|D|-|-| |L|L|L|-|E|E|L| |-|D|D|L|L|-|-|
TR_61 |E|D|E|-|N|-|-| |-|-|E|L|-|-|-| |E|-|-|D|E|L|-| |-|E|-|-|-|-|-|
TR_62 |-|E|D|L|L|-|-| |E|D|-|D|E|E|E| |-|D|D|L|-|D|L| |N|N|N|-|D|E|D|
TR_63 |-|-|N|-|-|D|-| |-|D|N|-|L|-|-| |-|-|L|-|N|-|-| |L|L|N|-|N|-|-|
TR_64 |-|N|-|N|-|-|-| |E|-|-|N|-|L|L| |L|N|-|D|D|D|E| |-|E|E|E|-|-|-|
TR_65 |L|L|L|L|-|E|D| |E|E|L|-|N|N|N| |-|D|L|L|L|-|-| |E|D|D|E|L|-|-|
TR_66 |N|-|D|-|D|-|-| |N|-|-|D|E|-|-| |D|E|-|-|-|L|-| |L|N|-|-|-|-|-|
TR_67 |-|L|-|-|-|-|-| |D|-|-|-|D|-|-| |N|-|E|N|-|-|-| |D|L|-|D|E|L|-|
TR_68 |-|L|L|-|D|D|L| |L|-|L|N|-|D|E| |-|E|-|N|-|-|-| |L|L|-|-|E|-|-|
TR_69 |D|E|N|-|E|L|L| |L|L|-|L|N|-|-| |E|L|N|N|N|-|-| |D|E|L|N|-|E|E|


Hard constraint violations
--------------------------

Minimal coverage constraints: 0
Required skill constraints: 0
Illegal shift type succession constraints: 0
Single assignment per day: 0


Cost per constraint type
------------------------

Total assignment constraints: 320
Consecutive constraints: 28560
Non working days constraints: 15720
Preferences: 40
Max working weekend: 30
Complete weekends: 0
Optimal coverage constraints: 60

------------------------

Total cost: 44730
